c Reduced graph for GEOM80 generated by Cyril Grelier
p edge 64 273
e 1 15
e 1 21
e 1 26
e 1 41
e 1 46
e 1 50
e 1 51
e 1 52
e 1 55
e 1 61
e 1 63
e 1 64
e 2 5
e 2 6
e 2 7
e 2 8
e 2 17
e 2 24
e 2 27
e 2 35
e 2 46
e 2 63
e 3 4
e 3 16
e 3 22
e 3 23
e 3 31
e 3 37
e 3 45
e 3 60
e 3 62
e 4 22
e 4 23
e 4 32
e 4 33
e 4 39
e 4 45
e 4 54
e 4 60
e 5 6
e 5 7
e 5 24
e 5 27
e 5 35
e 5 40
e 5 56
e 5 63
e 6 7
e 6 8
e 6 17
e 6 24
e 6 35
e 7 8
e 7 17
e 7 24
e 7 35
e 8 17
e 8 24
e 8 35
e 9 10
e 9 14
e 9 32
e 9 33
e 9 54
e 10 11
e 10 12
e 10 36
e 10 49
e 11 12
e 11 36
e 11 48
e 11 49
e 12 36
e 12 48
e 12 49
e 13 18
e 13 20
e 13 25
e 13 47
e 13 48
e 14 18
e 14 20
e 14 48
e 15 21
e 15 28
e 15 42
e 15 46
e 15 50
e 15 51
e 15 52
e 15 53
e 15 55
e 15 61
e 15 63
e 16 26
e 16 31
e 16 34
e 16 37
e 16 38
e 16 60
e 16 62
e 16 64
e 17 24
e 17 35
e 18 20
e 18 47
e 18 48
e 18 58
e 19 28
e 19 32
e 19 33
e 19 42
e 19 50
e 19 61
e 20 47
e 20 48
e 20 58
e 21 26
e 21 28
e 21 38
e 21 41
e 21 46
e 21 50
e 21 51
e 21 52
e 21 55
e 21 61
e 21 64
e 22 23
e 22 32
e 22 33
e 22 37
e 22 38
e 22 39
e 22 45
e 22 54
e 22 60
e 23 32
e 23 33
e 23 39
e 23 45
e 23 54
e 23 60
e 24 27
e 24 35
e 25 29
e 25 30
e 25 43
e 25 47
e 25 57
e 25 59
e 26 34
e 26 37
e 26 38
e 26 41
e 26 45
e 26 50
e 26 55
e 26 60
e 26 61
e 26 62
e 26 64
e 27 35
e 27 40
e 27 44
e 27 46
e 27 53
e 27 56
e 27 63
e 28 42
e 28 50
e 28 51
e 28 53
e 28 56
e 28 61
e 29 30
e 29 43
e 29 47
e 29 57
e 29 58
e 29 59
e 30 43
e 30 47
e 30 57
e 30 59
e 31 34
e 31 37
e 31 62
e 32 33
e 32 39
e 32 45
e 32 54
e 32 60
e 33 39
e 33 45
e 33 54
e 34 37
e 34 38
e 34 41
e 34 62
e 34 64
e 36 48
e 36 49
e 37 38
e 37 45
e 37 50
e 37 60
e 37 62
e 38 45
e 38 50
e 38 60
e 38 61
e 38 62
e 39 45
e 39 54
e 39 60
e 40 44
e 40 46
e 40 51
e 40 53
e 40 56
e 40 63
e 41 52
e 41 55
e 41 64
e 42 50
e 42 51
e 42 53
e 42 61
e 43 47
e 43 57
e 43 59
e 44 53
e 44 56
e 44 58
e 45 50
e 45 54
e 45 60
e 45 62
e 46 51
e 46 52
e 46 55
e 46 56
e 46 61
e 46 63
e 47 57
e 47 58
e 47 59
e 48 49
e 50 55
e 50 60
e 50 61
e 50 62
e 51 52
e 51 53
e 51 55
e 51 56
e 51 61
e 51 63
e 52 55
e 52 61
e 52 64
e 53 56
e 53 63
e 54 60
e 55 61
e 55 64
e 56 63
e 57 58
e 57 59
e 58 59
e 60 62
e 62 64
